#SOLVERNAME# PAJ_Gurobi_MOSEK_msd_noscale_subponly_noinit
#SOLVER# Pajarito.PajaritoSolver(3, 3600.0, 1.0e-5, true, Gurobi.GurobiSolver(nothing, Any[(:OutputFlag, 1), (:Threads, 8), (:IntFeasTol, 1.0e-9), (:FeasibilityTol, 1.0e-6), (:MIPGap, 1.0e-5)]), Pajarito.UnsetSolver(), 0, false, true, Mosek.MosekSolver(Any[(:LOG, 0), (:NUM_THREADS, 8), (:MSK_DPAR_INTPNT_CO_TOL_REL_GAP, 1.0e-10), (:MSK_DPAR_INTPNT_CO_TOL_PFEAS, 1.0e-10), (:MSK_DPAR_INTPNT_CO_TOL_DFEAS, 1.0e-10), (:MSK_DPAR_INTPNT_CO_TOL_NEAR_REL, 1000.0)]), true, true, false, false, true, false, false, true, false, false, false, false, false, false, false, 10.0, true, false, false, false, 1.0e-12, 1.0e-6, false, "")
#INSTANCE# sssd-weak-15-4.cbf.gz
#TIMELIMIT# 3600.0

Problem dimensions:
       variables |     125
     constraints |     180
   nonzeros in A |     360

Cones summary:
Cone             | Count   | Min dim.  | Max dim. 
    Rotated S.O. |      12 |         3 |         3

Variable types:
      continuous |      53
         integer |      72

Transforming data...               0.00s

Creating conic subproblem...       0.02s

Building MIP model...              0.00s

Solving conic relaxation...        0.01s
 - Relaxation status    =        Optimal
 - Relaxation bound     =  112819.583871
Academic license - for non-commercial use only
Optimize a model with 192 rows, 148 columns and 480 nonzeros
Variable types: 76 continuous, 72 integer (0 binary)
Coefficient statistics:
  Matrix range     [6e-01, 2e+05]
  Objective range  [3e+01, 8e+04]
  Bounds range     [0e+00, 0e+00]
  RHS range        [1e+00, 1e+00]
Presolve removed 109 rows and 24 columns
Presolve time: 0.00s
Presolved: 83 rows, 124 columns, 324 nonzeros
Variable types: 52 continuous, 72 integer (72 binary)

Root relaxation: objective 1.128196e+05, 92 iterations, 0.00 seconds

    Nodes    |    Current Node    |     Objective Bounds      |     Work
 Expl Unexpl |  Obj  Depth IntInf | Incumbent    BestBd   Gap | It/Node Time

     0     0 112819.584    0   14          - 112819.584      -     -    0s
H    0     0                    364606.04496 112819.584  69.1%     -    0s
H    0     0                    342808.37580 112819.584  67.1%     -    0s
     0     0 117332.743    0   21 342808.376 117332.743  65.8%     -    0s
     0     0 121481.668    0   24 342808.376 121481.668  64.6%     -    0s
     0     0 124679.300    0   28 342808.376 124679.300  63.6%     -    0s
     0     0 125343.223    0   28 342808.376 125343.223  63.4%     -    0s
     0     0 125345.458    0   28 342808.376 125345.458  63.4%     -    0s
     0     0 125390.762    0   35 342808.376 125390.762  63.4%     -    0s
     0     0 125404.179    0   37 342808.376 125404.179  63.4%     -    0s
     0     0 125425.325    0   38 342808.376 125425.325  63.4%     -    0s
     0     2 125425.325    0   38 342808.376 125425.325  63.4%     -    0s
H  205   197                    330211.64325 125501.363  62.0%   6.9    0s
* 1265   828              32    329452.15646 125811.857  61.8%   7.1    0s
* 2030  1161              63    329102.55166 327283.938  0.55%   7.4    0s
* 2078  1107              74    328597.21049 327286.677  0.40%   7.4    0s
* 2525  1124              69    328478.17563 327392.895  0.33%   6.7    0s
* 3106  1161              73    328425.26288 327496.309  0.28%   6.0    0s
* 4076  1183              76    328248.07363 327533.116  0.22%   5.3    0s
* 4456  1137              68    328193.53765 327555.813  0.19%   5.1    0s
* 4580  1104              73    328119.74725 327557.280  0.17%   5.1    0s
* 5284  1199              71    328075.29752 327576.567  0.15%   4.9    1s
*11504  1457              68    327997.92030 327743.373  0.08%   4.1    1s

Cutting planes:
  Gomory: 10
  MIR: 4
  Flow cover: 13
  GUB cover: 1
  Lazy constraints: 95

Explored 16661 nodes (63074 simplex iterations) in 1.49 seconds
Thread count was 8 (of 16 available processors)

Solution count 10: 327998 328075 328120 ... 329452

Optimal solution found (tolerance 1.00e-05)
Best objective 3.279979202987e+05, best bound 3.279979202987e+05, gap 0.0000%

Starting MIP-solver-driven algorithm

MIP-solver-driven algorithm summary:
 - Status               =        Optimal
 - Best feasible        =  +3.279979e+05
 - Best bound           =  +3.279979e+05
 - Relative opt. gap    =     -8.734e-11
 - Total time (s)       =       1.52e+00

Timers (s):
 - Setup                =   1.93e-02
 -- Transform data      =   1.88e-04
 -- Create conic data   =   1.87e-02
 -- Create MIP data     =   4.88e-04
 - Algorithm            =   1.50e+00
 -- Solve relaxation    =   7.76e-03
 -- Get relaxation cuts =   9.04e-05
 -- MIP solver driving  =   1.49e+00
 -- Solve subproblems   =   1.27e-01
 -- Get subproblem cuts =   4.65e-03
 -- Get separation cuts =   0.00e+00

Counters:
 - Lazy callbacks       =    46
 -- Integer repeats     =    13
 -- Conic subproblems   =    34
 --- Infeasible         =     0
 --- Optimal            =    34
 --- Suboptimal         =     0
 --- UserLimit          =     0
 --- ConicFailure       =     0
 --- Other status       =     0
 -- Feasible solutions  =    34
 --- From subproblems   =    34
 --- In lazy callback   =     0
 - Heuristic callbacks  = 11146
 -- Solutions passed    =    10

Solution returned by conic solver

Rounds of full separation/subproblem cuts, and count of cuts added:
Cone             | Subp.  | Sep.   | Total  | Relax. | Viol. 
    Second order |    564 |      0 |    179 |     24 |    179

0 numerically unstable disaggregated SOC cuts

Distance to feasibility (negative indicates strict feasibility):
Cone             | Variable  | Constraint
          Linear |  0.00e+00 |  1.88e-10
    Rotated S.O. |        NA |  3.03e-11

Distance to integrality of integer/binary variables:
         integer |  0.00e+00

#STATUS# Optimal
#OBJVAL# 327997.9202700395
#OBJBOUND# 327997.92029868625
#NODECOUNT# 16661
#TIMESOLVER# 1.5223262310028076
#TIMEALL# 1.578583002090454
#SOLUTION# [-0.0,0.0,1.0,-0.0,-0.0,-0.0,-0.0,1.0,1.0,-0.0,-0.0,0.0,-0.0,-0.0,-0.0,1.0,-0.0,1.0,-0.0,-0.0,1.0,-0.0,-0.0,0.0,-0.0,0.0,-0.0,1.0,1.0,-0.0,-0.0,0.0,-0.0,1.0,-0.0,-0.0,-0.0,0.0,1.0,-0.0,-0.0,-0.0,1.0,-0.0,-0.0,-0.0,1.0,-0.0,-0.0,1.0,-0.0,-0.0,-0.0,-0.0,-0.0,1.0,1.0,-0.0,0.0,-0.0,-0.0,-0.0,1.0,-0.0,-0.0,1.0,-0.0,-0.0,1.0,0.0,-0.0,1.0,0.9871484960322441,0.8821150746330643,1.0256633302596527,1.0216397551112752,0.0,0.0,0.4967663453310014,0.0,0.0,0.468682859285879,0.0,0.0,0.506334549771868,0.0,0.0,0.5053520305118684,0.0,0.49357424801612204,0.49357424801612204,0.24519107535062135,0.44105753731653213,0.44105753731653213,0.20671610767359264,0.5128316651298264,0.5128316651298264,0.2596643902438924,0.5108198775556376,0.5108198775556376,0.25814386229970343,1.987148496032244,1.987148496032244,1.987148496032244,1.8821150746330644,1.8821150746330644,1.8821150746330644,2.0256633302596527,2.0256633302596527,2.0256633302596527,2.0216397551112752,2.0216397551112752,2.0216397551112752,0.9871484958437683,0.9871484958438066,0.9871484960322441,0.8821150746117833,0.8821150746117825,0.8821150746330643,1.025663330249376,1.0256633302493714,1.0256633302596527,1.0216397551840628,1.0216397551840568,1.0216397551112752]
